NAME          DCAP_2_4_3_500_SS426
ROWS
 N  OBJ
 L  CON1
 L  CON2
 L  CON3
 L  CON4
 L  CON5
 L  CON6
 L  CON7
 L  CON8
 L  CON9
 L  CON10
 L  CON11
 L  CON12
 E  CON13
 E  CON14
 E  CON15
 E  CON16
 E  CON17
 E  CON18
 E  CON19
 E  CON20
 E  CON21
 E  CON22
 E  CON23
 E  CON24
COLUMNS
    x[1,1]    OBJ       6.180167      CON1      1.000000    
    x[1,1]    CON7      -1.000000     CON8      -1.000000   
    x[1,1]    CON9      -1.000000   
    x[1,2]    OBJ       6.563535      CON2      1.000000    
    x[1,2]    CON8      -1.000000     CON9      -1.000000   
    x[1,3]    OBJ       7.443064      CON3      1.000000    
    x[1,3]    CON9      -1.000000   
    x[2,1]    OBJ       6.732585      CON4      1.000000    
    x[2,1]    CON10     -1.000000     CON11     -1.000000   
    x[2,1]    CON12     -1.000000   
    x[2,2]    OBJ       5.039546      CON5      1.000000    
    x[2,2]    CON11     -1.000000     CON12     -1.000000   
    x[2,3]    OBJ       6.054841      CON6      1.000000    
    x[2,3]    CON12     -1.000000   
    MARKER    'MARKER'                'INTORG'
    u[1,1]    OBJ       48.076654     CON1      -1.000000   
    u[1,2]    OBJ       20.066487     CON2      -1.000000   
    u[1,3]    OBJ       32.230043     CON3      -1.000000   
    u[2,1]    OBJ       49.996186     CON4      -1.000000   
    u[2,2]    OBJ       49.466655     CON5      -1.000000   
    u[2,3]    OBJ       27.484319     CON6      -1.000000   
    y[1,1,1]  OBJ       9.341766      CON7      1.384948    
    y[1,1,1]  CON13     1.000000    
    y[1,1,2]  OBJ       8.718137      CON8      0.947811    
    y[1,1,2]  CON14     1.000000    
    y[1,1,3]  OBJ       6.604729      CON9      1.153409    
    y[1,1,3]  CON15     1.000000    
    y[1,2,1]  OBJ       8.497400      CON7      1.122017    
    y[1,2,1]  CON16     1.000000    
    y[1,2,2]  OBJ       8.389833      CON8      1.193383    
    y[1,2,2]  CON17     1.000000    
    y[1,2,3]  OBJ       7.972925      CON9      0.574389    
    y[1,2,3]  CON18     1.000000    
    y[1,3,1]  OBJ       8.321890      CON7      1.293088    
    y[1,3,1]  CON19     1.000000    
    y[1,3,2]  OBJ       7.869178      CON8      1.211784    
    y[1,3,2]  CON20     1.000000    
    y[1,3,3]  OBJ       5.588570      CON9      0.640456    
    y[1,3,3]  CON21     1.000000    
    y[1,4,1]  OBJ       7.197310      CON7      0.511385    
    y[1,4,1]  CON22     1.000000    
    y[1,4,2]  OBJ       7.642528      CON8      1.202897    
    y[1,4,2]  CON23     1.000000    
    y[1,4,3]  OBJ       6.589406      CON9      0.786512    
    y[1,4,3]  CON24     1.000000    
    y[2,1,1]  OBJ       6.077423      CON10     1.384948    
    y[2,1,1]  CON13     1.000000    
    y[2,1,2]  OBJ       5.004135      CON11     0.947811    
    y[2,1,2]  CON14     1.000000    
    y[2,1,3]  OBJ       8.376880      CON12     1.153409    
    y[2,1,3]  CON15     1.000000    
    y[2,2,1]  OBJ       9.384713      CON10     1.122017    
    y[2,2,1]  CON16     1.000000    
    y[2,2,2]  OBJ       5.741724      CON11     1.193383    
    y[2,2,2]  CON17     1.000000    
    y[2,2,3]  OBJ       6.487623      CON12     0.574389    
    y[2,2,3]  CON18     1.000000    
    y[2,3,1]  OBJ       9.593703      CON10     1.293088    
    y[2,3,1]  CON19     1.000000    
    y[2,3,2]  OBJ       5.399279      CON11     1.211784    
    y[2,3,2]  CON20     1.000000    
    y[2,3,3]  OBJ       7.814952      CON12     0.640456    
    y[2,3,3]  CON21     1.000000    
    y[2,4,1]  OBJ       6.099549      CON10     0.511385    
    y[2,4,1]  CON22     1.000000    
    y[2,4,2]  OBJ       9.741123      CON11     1.202897    
    y[2,4,2]  CON23     1.000000    
    y[2,4,3]  OBJ       6.451603      CON12     0.786512    
    y[2,4,3]  CON24     1.000000    
    z[1,1]    OBJ       849.992057    CON13     1.000000    
    z[1,2]    OBJ       911.434297    CON14     1.000000    
    z[1,3]    OBJ       906.618517    CON15     1.000000    
    z[2,1]    OBJ       671.589495    CON16     1.000000    
    z[2,2]    OBJ       855.530228    CON17     1.000000    
    z[2,3]    OBJ       713.392931    CON18     1.000000    
    z[3,1]    OBJ       968.736655    CON19     1.000000    
    z[3,2]    OBJ       519.403691    CON20     1.000000    
    z[3,3]    OBJ       757.268573    CON21     1.000000    
    z[4,1]    OBJ       927.564395    CON22     1.000000    
    z[4,2]    OBJ       571.222737    CON23     1.000000    
    z[4,3]    OBJ       776.138929    CON24     1.000000    
    MARKER    'MARKER'                 'INTEND'
RHS
    RHS       CON1      -0.000000     CON2      -0.000000   
    RHS       CON3      -0.000000     CON4      -0.000000   
    RHS       CON5      -0.000000     CON6      -0.000000   
    RHS       CON7      -0.000000     CON8      -0.000000   
    RHS       CON9      -0.000000     CON10     -0.000000   
    RHS       CON11     -0.000000     CON12     -0.000000   
    RHS       CON13     1.000000      CON14     1.000000    
    RHS       CON15     1.000000      CON16     1.000000    
    RHS       CON17     1.000000      CON18     1.000000    
    RHS       CON19     1.000000      CON20     1.000000    
    RHS       CON21     1.000000      CON22     1.000000    
    RHS       CON23     1.000000      CON24     1.000000    
BOUNDS
 BV BOUND     u[1,1]  
 BV BOUND     u[1,2]  
 BV BOUND     u[1,3]  
 BV BOUND     u[2,1]  
 BV BOUND     u[2,2]  
 BV BOUND     u[2,3]  
 BV BOUND     y[1,1,1]
 BV BOUND     y[1,1,2]
 BV BOUND     y[1,1,3]
 BV BOUND     y[1,2,1]
 BV BOUND     y[1,2,2]
 BV BOUND     y[1,2,3]
 BV BOUND     y[1,3,1]
 BV BOUND     y[1,3,2]
 BV BOUND     y[1,3,3]
 BV BOUND     y[1,4,1]
 BV BOUND     y[1,4,2]
 BV BOUND     y[1,4,3]
 BV BOUND     y[2,1,1]
 BV BOUND     y[2,1,2]
 BV BOUND     y[2,1,3]
 BV BOUND     y[2,2,1]
 BV BOUND     y[2,2,2]
 BV BOUND     y[2,2,3]
 BV BOUND     y[2,3,1]
 BV BOUND     y[2,3,2]
 BV BOUND     y[2,3,3]
 BV BOUND     y[2,4,1]
 BV BOUND     y[2,4,2]
 BV BOUND     y[2,4,3]
 BV BOUND     z[1,1]  
 BV BOUND     z[1,2]  
 BV BOUND     z[1,3]  
 BV BOUND     z[2,1]  
 BV BOUND     z[2,2]  
 BV BOUND     z[2,3]  
 BV BOUND     z[3,1]  
 BV BOUND     z[3,2]  
 BV BOUND     z[3,3]  
 BV BOUND     z[4,1]  
 BV BOUND     z[4,2]  
 BV BOUND     z[4,3]  
ENDATA
